17	4
25	12	23	23	
0	0	0	0	0	3	2	3	4	
9	10	0	0	0	3	5	13	16	
10	0	6	3	0	3	6	9	17	
9	0	7	0	0	3	5	8	9	
9	5	2	5	0	2	11	17	
50	0	0	6	3	3	7	8	12	
150	0	1	0	7	3	10	11	14	
250	5	0	8	0	3	13	15	16	
250	8	0	3	0	1	17	
75	0	8	3	6	3	13	17	17	
250	4	0	7	10	3	17	17	17	
225	4	0	0	0	2	17	17	
4	0	0	0	10	3	17	17	17	
8	5	2	8	0	3	17	17	17	
2	10	4	0	0	3	17	17	17	
3	0	0	0	8	3	17	17	17	
0	0	0	0	0	0	
